Route #1: 15 9 10 1 11 2 12 3 4 16 28 24 17 5 6 7 8 13 14 19 35 30 25 18 29 40 34 47 48 54 49 41 42 55 56 69 68 85 99 93 92 83 84 76 62 75 67 61 60 66 74 82 98 88 97 96 87 81 73 72 80 79 78 91 90 100 89 77 64 65 58 51 44 33 27 38 45 52 59 53 46 39 23 22 26 21 20 32 37 31 36 43 50 63 57 71 70 86 94 95
Cost 46557
